/*********************************************
 * OPL 12.8.0.0 Data
 * Author: mm286614
 * Creation Date: Feb 12, 2022 at 3:08:44 AM
 *********************************************/
NPatients=20;
Ndays=10;
capacity=4;
x=[[0,0,0,0,0,0,0,1,0,0,0,0,0,1,0,1,0,0,0,1],[1,1,0,0,0,0,0,1,0,0,1,0,1,0,1,1,1,0,0,1],
[1,1,0,0,0,0,1,1,1,0,1,1,1,0,1,1,1,0,0,1],[0,1,1,0,0,0,1,1,1,0,0,1,1,0,1,1,1,0,0,0]
[0,1,1,1,0,1,1,0,1,0,0,1,0,0,0,0,0,1,1,0],[0,1,0,1,0,1,1,0,1,0,0,0,0,0,0,0,0,1,1,0],
[0,0,0,1,0,1,0,0,0,0,0,0,0,0,0,0,0,1,0,0],[0,0,0,0,0,1,0,0,0,0,0,0,0,0,0,0,0,1,0,0],
[0,0,0,0,0,1,0,0,0,0,0,0,0,0,0,0,0,1,0,0],[0,0,0,0,0,1,0,0,0,0,0,0,0,0,0,0,0,1,0,0]];
//day=#[1:<[0,1,1,1,1]>2:<[1,1,1,1,0]>3:<[1,0,1,0,0]>]#;
